Version identifier: 22.1.0.0 | 2022-03-09 | 1a383f8ce
CPXPARAM_Threads                                 1
CPXPARAM_MIP_Strategy_VariableSelect             3
CPXPARAM_TimeLimit                               600
Tried aggregator 1 time.
MIP Presolve eliminated 718 rows and 2856 columns.
Reduced MIP has 1793 rows, 5712 columns, and 22803 nonzeros.
Reduced MIP has 4641 binaries, 1071 generals, 0 SOSs, and 0 indicators.
Presolve time = 0.02 sec. (12.07 ticks)
Found incumbent of value 20.550386 after 0.04 sec. (28.96 ticks)
Probing time = 0.00 sec. (3.26 ticks)
Tried aggregator 1 time.
Detecting symmetries...
Reduced MIP has 1793 rows, 5712 columns, and 22803 nonzeros.
Reduced MIP has 4641 binaries, 1071 generals, 0 SOSs, and 0 indicators.
Presolve time = 0.02 sec. (12.23 ticks)
Probing time = 0.01 sec. (3.26 ticks)
Clique table members: 369.
MIP emphasis: balance optimality and feasibility.
MIP search method: dynamic search.
Parallel mode: none, using 1 thread.
Root relaxation solution time = 0.02 sec. (16.59 ticks)

        Nodes                                         Cuts/
   Node  Left     Objective  IInf  Best Integer    Best Bound    ItCnt     Gap

*     0+    0                           20.5504        0.0000           100.00%
      0     0        0.0000   117       20.5504        0.0000      547  100.00%
*     0+    0                            0.0000        0.0000             0.00%
      0     0        cutoff              0.0000        0.0000      547    0.00%
Elapsed time = 0.15 sec. (115.36 ticks, tree = 0.01 MB, solutions = 2)

Root node processing (before b&c):
  Real time             =    0.15 sec. (115.66 ticks)
Sequential b&c:
  Real time             =    0.00 sec. (0.00 ticks)
                          ------------
Total (root+branch&cut) =    0.15 sec. (115.66 ticks)
Violation-free sequence bound:	357
Unscheduled:	0
Status:	Optimal
Time:	0.16
Sequence:
	5
	9
	5
	9
	5
	0
	5
	9
	5
	9
	9
	5
	9
	1
	9
	9
	9
	10
	9
	10
	9
	5
	9
	10
	8
	9
	9
	5
	8
	9
	5
	0
	4
	5
	0
	5
	9
	10
	4
	10
	0
	9
	5
	0
	5
	4
	0
	5
	9
	9
	0
	5
	9
	5
	9
	5
	9
	0
	5
	9
	5
	9
	5
	4
	9
	5
	4
	0
	5
	9
	5
	9
	5
	9
	5
	9
	5
	0
	5
	9
	9
	5
	0
	5
	9
	5
	0
	5
	4
	0
	4
	5
	0
	5
	4
	0
	5
	4
	0
	1
	4
	10
	0
	4
	5
	0
	10
	9
	0
	9
	1
	0
	4
	5
	0
	5
	4
	0
	5
	4
	10
	0
	4
	5
	0
	5
	9
	5
	0
	4
	4
	0
	4
	5
	0
	5
	4
	0
	4
	10
	0
	4
	4
	1
	0
	4
	1
	4
	4
	10
	0
	1
	4
	5
	0
	9
	10
	0
	9
	5
	0
	1
	9
	1
	0
	1
	4
	1
	0
	5
	9
	9
	9
	9
	9
	9
	9
	9
	9
	9
	0
	9
	5
	9
	9
	9
	5
	9
	0
	9
	9
	9
	0
	9
	9
	9
	9
	9
	4
	5
	9
	4
	4
	10
	0
	9
	9
	9
	9
	0
	9
	4
	1
	4
	1
	9
	1
	9
	1
	9
	1
	9
	4
	1
	4
	1
	0
	9
	1
	9
	0
	5
	9
	1
	9
	1
	9
	1
	9
	1
	4
	5
	9
	1
	4
	5
	9
	5
	9
	5
	9
	1
	0
	9
	9
	1
	9
	1
	9
	9
	1
	9
	8
	9
	9
	5
	9
	9
	5
	9
	9
	5
	9
	9
	1
	4
	5
	0
	5
	9
	0
	10
	4
	9
	5
	9
	2
	4
	5
	0
	9
	10
	2
	5
	9
	0
	5
	9
	0
	9
	5
	0
	10
	4
	4
	0
	4
	4
	0
	4
	4
	0
	9
	9
	4
	4
	2
	4
	9
	9
	0
	9
	9
	9
	9
	0
	5
	9
	0
	4
	9
	0
	5
	9
	9
	8
	1
	9
	0
	4
	4
	0
	4
	4
	0
	4
	5
	0
	4
	4
	1
	4
	0
	1
	4
	5
	9
Violation-free sequence:
	5
	9
	5
	9
	5
	0
	5
	9
	5
	9
	9
	5
	9
	1
	9
	9
	9
	10
	9
	10
	9
	5
	9
	10
	8
	9
	9
	5
	8
	9
	5
	0
	4
	5
	0
	5
	9
	10
	4
	10
	0
	9
	5
	0
	5
	4
	0
	5
	9
	9
	0
	5
	9
	5
	9
	5
	9
	0
	5
	9
	5
	9
	5
	4
	9
	5
	4
	0
	5
	9
	5
	9
	5
	9
	5
	9
	5
	0
	5
	9
	9
	5
	0
	5
	9
	5
	0
	5
	4
	0
	4
	5
	0
	5
	4
	0
	5
	4
	0
	1
	4
	10
	0
	4
	5
	0
	10
	9
	0
	9
	1
	0
	4
	5
	0
	5
	4
	0
	5
	4
	10
	0
	4
	5
	0
	5
	9
	5
	0
	4
	4
	0
	4
	5
	0
	5
	4
	0
	4
	10
	0
	4
	4
	1
	0
	4
	1
	4
	4
	10
	0
	1
	4
	5
	0
	9
	10
	0
	9
	5
	0
	1
	9
	1
	0
	1
	4
	1
	0
	5
	9
	9
	9
	9
	9
	9
	9
	9
	9
	9
	0
	9
	5
	9
	9
	9
	5
	9
	0
	9
	9
	9
	0
	9
	9
	9
	9
	9
	4
	5
	9
	4
	4
	10
	0
	9
	9
	9
	9
	0
	9
	4
	1
	4
	1
	9
	1
	9
	1
	9
	1
	9
	4
	1
	4
	1
	0
	9
	1
	9
	0
	5
	9
	1
	9
	1
	9
	1
	9
	1
	4
	5
	9
	1
	4
	5
	9
	5
	9
	5
	9
	1
	0
	9
	9
	1
	9
	1
	9
	9
	1
	9
	8
	9
	9
	5
	9
	9
	5
	9
	9
	5
	9
	9
	1
	4
	5
	0
	5
	9
	0
	10
	4
	9
	5
	9
	2
	4
	5
	0
	9
	10
	2
	5
	9
	0
	5
	9
	0
	9
	5
	0
	10
	4
	4
	0
	4
	4
	0
	4
	4
	0
	9
	9
	4
	4
	2
	4
	9
	9
	0
	9
	9
	9
	9
	0
	5
	9
	0
	4
	9
	0
	5
	9
	9
	8
	1
	9
	0
	4
	4
	0
	4
	4
	0
	4
	5
	0
	4
	4
	1
	4
	0
	1
	4
	5
	9
